\ Model PDM
\ LP format - for model browsing. Use MPS format to capture full model detail.
Minimize
  C0 + C1 + C2 + C3 + C4 + C5 + C6 + C7 + C8 + C9 + C10 + C11 + C12 + C13
   + C14 + C15 + C16 + C17 + C18 + C19 + C20 + C21 + C22 + C23 + C24 + C25
   + C26 + C27 + C28 + C29 + C30 + C31 + C32 + C33 + C34 + C35 + C36 + C37
   + C38 + C39 + C40 + C41 + C42 + C43 + C44 + C45 + C46 + C47 + C48 + C49
   + C50 + C51 + C52 + C53 + C54 + C55 + C56 + C57 + C58 + C59 + C60 + C61
   + C62 + C63 + C64 + C65 + C66 + C67 + C68 + C69 + C70 + C71 + C72 + C73
   + C74 + C75 + C76 + C77 + C78 + C79 + C80 + C81 + C82 + C83 + C84 + C85
   + C86 + C87 + C88 + C89 + C90 + C91 + C92 + C93 + C94 + C95 + C96 + C97
   + C98 + C99 + C100 + C101 + C102 + C103 + C104 + C105 + C106 + C107
   + C108 + C109 + C110 + C111 + C112 + C113 + C114 + C115 + C116 + C117
   + C118 + C119 + C120 + C121 + C122 + C123 + C124 + C125 + C126 + C127
   + C128 + C129 + C130 + C131 + C132 + C133 + C134 + C135 + C136 + C137
   + C138 + C139 + C140 + C141 + C142 + C143 + C144 + C145 + C146 + C147
   + C148 + C149 + C150 + C151 + C152 + C153 + C154 + C155 + C156 + C157
   + C158 + C159 + C160 + C161 + C162 + C163
Subject To
 R0: C0 - 0.56 C23 - 0.24 C97 >= 0
 R1: C1 - 0.8 C147 >= -100
 R2: C1 - 0.8 C148 >= -100
 R3: C2 - 0.8 C135 >= 0
 R4: C3 - 0.24 C58 - 0.08 C97 - 0.48 C142 >= 0
 R5: C4 - 0.8 C52 >= -100
 R6: C4 - 0.8 C41 >= -100
 R7: C5 - 0.24 C97 - 0.56 C146 >= 0
 R8: C6 - 0.8 C12 >= 0
 R9: C7 - 0.8 C75 >= -100
 R10: C7 - 0.8 C34 >= -100
 R11: C8 - 0.8 C53 >= -100
 R12: C8 - 0.8 C74 >= -100
 R13: 0.9272727272727272 C9 - 0.0727272727272727 C25
   - 0.0727272727272727 C36 - 0.0727272727272727 C44
   - 0.0727272727272727 C69 - 0.0727272727272727 C82
   - 0.0727272727272727 C101 - 0.0727272727272727 C111
   - 0.0727272727272727 C138 - 0.0727272727272727 C151
   - 0.0727272727272727 C158 >= 0
 R14: C10 - 0.8 C56 >= -100
 R15: C11 - 0.8 C162 >= 10000
 R16: C12 - 0.8 C101 >= -100
 R17: 0.9272727272727272 C13 - 0.0727272727272727 C30
   - 0.0727272727272727 C34 - 0.0727272727272727 C50
   - 0.0727272727272727 C73 - 0.0727272727272727 C75
   - 0.0727272727272727 C98 - 0.0727272727272727 C114
   - 0.0727272727272727 C136 - 0.0727272727272727 C153
   - 0.0727272727272727 C155 >= 0
 R18: C14 - 0.8 C35 >= 0
 R19: C15 - 0.8 C134 >= -100
 R20: C15 - 0.8 C113 >= -100
 R21: C16 - 0.8 C70 >= 0
 R22: C17 - 0.8 C159 >= 0
 R23: C18 - 0.8 C28 >= -100
 R24: C18 - 0.8 C121 >= -100
 R25: C19 - 0.8 C161 >= -100
 R26: C19 - 0.8 C39 >= -100
 R27: C20 - 0.8 C38 >= -100
 R28: C20 - 0.8 C59 >= -100
 R29: - 0.0727272727272727 C2 - 0.0727272727272727 C16
   + 0.9272727272727272 C21 - 0.0727272727272727 C37
   - 0.0727272727272727 C60 - 0.0727272727272727 C66
   - 0.0727272727272727 C83 - 0.0727272727272727 C89
   - 0.0727272727272727 C124 - 0.0727272727272727 C128
   - 0.0727272727272727 C145 >= 0
 R30: C22 - 0.8 C42 >= -100
 R31: C23 - 0.8 C90 >= -100
 R32: C23 - 0.8 C110 >= -100
 R33: C24 - 0.8 C89 >= -100
 R34: C25 - 0.8 C47 >= 0
 R35: - 0.0727272727272727 C6 + 0.9272727272727272 C26
   - 0.0727272727272727 C28 - 0.0727272727272727 C41
   - 0.0727272727272727 C52 - 0.0727272727272727 C84
   - 0.0727272727272727 C87 - 0.0727272727272727 C121
   - 0.0727272727272727 C123 - 0.0727272727272727 C129
   - 0.0727272727272727 C140 >= 0
 R36: C27 - 0.8 C49 >= 0
 R37: - 0.8 C4 + C28 >= 0
 R38: C29 - 0.8 C75 >= -100
 R39: C29 - 0.8 C153 >= -100
 R40: - 0.8 C7 + C30 >= 0
 R41: - 0.8 C8 + C31 >= 0
 R42: C33 - 0.8 C149 >= -100
 R43: - 0.8 C27 + C33 >= -100
 R44: C34 - 0.8 C57 >= 0
 R45: C35 - 0.8 C77 >= -100
 R46: C35 - 0.8 C96 >= -100
 R47: C36 - 0.8 C88 >= 0
 R48: C37 - 0.8 C62 >= 0
 R49: C38 - 0.8 C63 >= 0
 R50: C39 - 0.56 C64 - 0.24 C97 >= 0
 R51: C40 - 0.8 C60 >= -100
 R52: - 0.8 C37 + C40 >= -100
 R53: - 0.8 C18 + C41 >= 0
 R54: - 0.8 C19 + C42 >= 0
 R55: - 0.56 C20 + C43 - 0.24 C97 >= 0
 R56: C44 - 0.8 C71 >= 0
 R57: C45 - 0.8 C136 >= -100
 R58: C46 - 0.8 C128 >= -100
 R59: C46 - 0.8 C145 >= -100
 R60: C47 - 0.8 C82 >= -100
 R61: - 0.8 C36 + C47 >= -100
 R62: C49 - 0.8 C56 >= -100
 R63: C49 - 0.8 C80 >= -100
 R64: C50 - 0.8 C71 >= 1000
 R65: - 0.8 C14 + C51 >= -100
 R66: C52 - 0.8 C126 >= 0
 R67: C53 - 0.8 C79 >= 0
 R68: C54 - 0.8 C84 >= -100
 R69: - 0.8 C44 + C55 >= -100
 R70: - 0.8 C25 + C55 >= -100
 R71: - 0.8 C33 + C56 >= 0
 R72: - 0.8 C30 + C57 >= -100
 R73: - 0.8 C13 + C57 >= -100
 R74: C58 - 0.8 C76 >= 0
 R75: C59 - 0.8 C97 >= 0
 R76: C60 - 0.8 C126 >= 1000
 R77: C61 - 0.8 C123 >= -100
 R78: C62 - 0.8 C66 >= -100
 R79: - 0.8 C16 + C62 >= -100
 R80: - 0.8 C3 + C63 >= -100
 R81: - 0.8 C43 + C63 >= -100
 R82: - 0.8 C42 + C64 >= -100
 R83: C64 - 0.8 C148 >= -100
 R84: - 0.8 C2 + C65 >= -100
 R85: - 0.8 C21 + C65 >= -100
 R86: - 0.8 C40 + C66 >= 0
 R87: - 0.8 C0 + C67 >= -100
 R88: - 0.8 C1 + C68 >= 1000
 R89: - 0.24 C36 + C69 - 0.48 C94 - 0.08 C97 >= 0
 R90: - 0.8 C37 + C70 >= -100
 R91: - 0.8 C21 + C70 >= -100
 R92: C71 - 0.8 C82 >= -100
 R93: C71 - 0.8 C158 >= -100
 R94: C72 - 0.8 C95 >= 0
 R95: - 0.24 C34 - 0.48 C45 + C73 - 0.08 C97 >= 0
 R96: C74 - 0.8 C97 >= 0
 R97: C75 - 0.8 C99 >= 0
 R98: C76 - 0.8 C127 >= -100
 R99: C76 - 0.8 C110 >= -100
 R100: - 0.8 C51 + C77 >= 0
 R101: C78 - 0.8 C141 >= -100
 R102: - 0.8 C59 + C78 >= -100
 R103: C79 - 0.8 C152 >= -100
 R104: - 0.8 C31 + C79 >= -100
 R105: C80 - 0.8 C97 >= 0
 R106: C81 - 0.8 C151 >= -100
 R107: - 0.8 C9 + C81 >= -100
 R108: - 0.8 C55 + C82 >= 0
 R109: - 0.24 C16 + C83 - 0.08 C97 - 0.48 C106 >= 0
 R110: C84 - 0.24 C97 - 0.56 C107 >= 0
 R111: - 0.8 C66 + C85 >= -100
 R112: C85 - 0.8 C145 >= -100
 R113: - 0.8 C51 + C86 >= 0
 R114: - 0.48 C61 + C87 - 0.08 C97 - 0.24 C121 >= 0
 R115: - 0.8 C25 + C88 >= -100
 R116: - 0.8 C9 + C88 >= -100
 R117: - 0.56 C65 + C89 - 0.24 C97 >= 0
 R118: C90 - 0.8 C95 >= 0
 R119: C91 - 0.8 C154 >= -100
 R120: C91 - 0.8 C118 >= -100
 R121: C92 - 0.8 C136 >= -100
 R122: C92 - 0.8 C153 >= -100
 R123: - 0.0727272727272727 C17 - 0.0727272727272727 C27
   - 0.0727272727272727 C56 - 0.0727272727272727 C72
   - 0.0727272727272727 C80 + 0.9272727272727272 C93
   - 0.0727272727272727 C109 - 0.0727272727272727 C117
   - 0.0727272727272727 C130 - 0.0727272727272727 C149
   - 0.0727272727272727 C160 >= 0
 R124: C94 - 0.8 C138 >= -100
 R125: - 0.8 C17 + C95 >= -100
 R126: - 0.0727272727272727 C14 - 0.0727272727272727 C31
   - 0.0727272727272727 C53 - 0.0727272727272727 C74
   - 0.0727272727272727 C77 + 0.9272727272727272 C96
   - 0.0727272727272727 C113 - 0.0727272727272727 C118
   - 0.0727272727272727 C134 - 0.0727272727272727 C152
   - 0.0727272727272727 C154 >= 0
 R127: - 0.8 C48 + C97 >= -3000
 R128: C98 - 0.8 C119 >= 0
 R129: - 0.8 C50 + C99 >= -100
 R130: - 0.8 C30 + C99 >= -100
 R131: C100 - 0.8 C109 >= -100
 R132: - 0.8 C93 + C100 >= -100
 R133: - 0.8 C81 + C101 >= 0
 R134: C102 - 0.8 C141 >= -100
 R135: - 0.8 C58 + C102 >= -100
 R136: - 0.8 C83 + C103 >= -100
 R137: C103 - 0.8 C124 >= -100
 R138: C104 - 0.8 C123 >= -100
 R139: C104 - 0.8 C140 >= -100
 R140: - 0.0727272727272727 C5 - 0.0727272727272727 C11
   - 0.0727272727272727 C39 - 0.0727272727272727 C42
   - 0.0727272727272727 C86 + 0.9272727272727272 C105
   - 0.0727272727272727 C115 - 0.0727272727272727 C122
   - 0.0727272727272727 C147 - 0.0727272727272727 C148
   - 0.0727272727272727 C161 >= 0
 R141: C106 - 0.8 C128 >= -100
 R142: - 0.8 C6 + C107 >= -100
 R143: - 0.8 C26 + C107 >= -100
 R144: - 0.8 C5 + C108 >= -100
 R145: C109 - 0.8 C132 >= 0
 R146: - 0.0727272727272727 C0 - 0.0727272727272727 C3
   - 0.0727272727272727 C38 - 0.0727272727272727 C43
   - 0.0727272727272727 C58 - 0.0727272727272727 C59
   - 0.0727272727272727 C68 - 0.0727272727272727 C90
   + 0.9272727272727272 C110 - 0.0727272727272727 C127
   - 0.0727272727272727 C141 >= 0
 R147: C111 - 0.8 C133 >= 0
 R148: C112 - 0.8 C154 >= -100
 R149: - 0.8 C74 + C112 >= -100
 R150: - 0.8 C91 + C113 >= 0
 R151: - 0.8 C92 + C114 >= 0
 R152: - 0.8 C1 + C115 >= 0
 R153: - 0.8 C69 + C116 >= -100
 R154: - 0.8 C111 + C116 >= -100
 R155: - 0.8 C100 + C117 >= 0
 R156: C118 - 0.8 C162 >= 10000
 R157: C119 - 0.8 C155 >= -100
 R158: - 0.8 C13 + C119 >= -100
 R159: - 0.8 C68 + C120 >= -100
 R160: C120 - 0.8 C127 >= -100
 R161: C121 - 0.8 C163 >= 0
 R162: C122 - 0.8 C143 >= 0
 R163: - 0.8 C19 + C123 >= 1000
 R164: - 0.56 C46 - 0.24 C97 + C124 >= 0
 R165: - 0.8 C115 + C125 >= -100
 R166: - 0.8 C122 + C125 >= -100
 R167: - 0.8 C28 + C126 >= -100
 R168: C126 - 0.8 C140 >= -100
 R169: - 0.8 C102 + C127 >= 0
 R170: - 0.8 C103 + C128 >= 0
 R171: - 0.24 C97 - 0.56 C104 + C129 >= 0
 R172: - 0.8 C112 + C130 >= 1000
 R173: - 0.8 C53 + C131 >= -100
 R174: C132 - 0.8 C160 >= -100
 R175: - 0.8 C117 + C132 >= -100
 R176: C133 - 0.8 C138 >= -100
 R177: C133 - 0.8 C158 >= -100
 R178: - 0.8 C112 + C134 >= 0
 R179: - 0.8 C98 + C135 >= -100
 R180: C136 - 0.8 C157 >= 0
 R181: - 0.8 C130 + C137 >= -100
 R182: - 0.8 C109 + C137 >= -100
 R183: - 0.8 C79 + C138 >= 1000
 R184: - 0.8 C113 + C139 >= -100
 R185: - 0.8 C96 + C139 >= -100
 R186: - 0.8 C97 + C140 >= 0
 R187: - 0.8 C120 + C141 >= 0
 R188: - 0.8 C38 + C142 >= -100
 R189: C143 - 0.8 C147 >= -100
 R190: - 0.8 C11 + C143 >= -100
 R191: - 0.8 C87 + C144 >= -100
 R192: - 0.8 C129 + C144 >= -100
 R193: - 0.8 C97 + C145 >= 0
 R194: - 0.8 C86 + C146 >= -100
 R195: - 0.8 C105 + C146 >= -100
 R196: - 0.8 C125 + C147 >= 0
 R197: - 0.8 C97 + C148 >= 0
 R198: - 0.48 C10 - 0.08 C97 - 0.24 C117 + C149 >= 0
 R199: C150 - 0.8 C160 >= -100
 R200: - 0.8 C80 + C150 >= -100
 R201: - 0.8 C12 + C151 >= 0
 R202: - 0.08 C97 - 0.24 C118 - 0.48 C131 + C152 >= 0
 R203: - 0.8 C97 + C153 >= 0
 R204: - 0.8 C15 + C154 >= 0
 R205: - 0.8 C135 + C155 >= 0
 R206: - 0.8 C122 + C156 >= -100
 R207: - 0.8 C105 + C156 >= -100
 R208: - 0.8 C73 + C157 >= -100
 R209: - 0.8 C114 + C157 >= -100
 R210: - 0.8 C97 + C158 >= 0
 R211: - 0.8 C72 + C159 >= -100
 R212: - 0.8 C93 + C159 >= -100
 R213: - 0.8 C137 + C160 >= 0
 R214: - 0.24 C11 - 0.48 C22 - 0.08 C97 + C161 >= 0
 R215: - 0.8 C32 + C162 >= 3000
 R216: - 0.8 C41 + C163 >= -100
 R217: - 0.8 C26 + C163 >= -100
Bounds
 C0 free
 C1 free
 C2 free
 C3 free
 C4 free
 C5 free
 C6 free
 C7 free
 C8 free
 C9 free
 C10 free
 C11 free
 C12 free
 C13 free
 C14 free
 C15 free
 C16 free
 C17 free
 C18 free
 C19 free
 C20 free
 C21 free
 C22 free
 C23 free
 C24 free
 C25 free
 C26 free
 C27 free
 C28 free
 C29 free
 C30 free
 C31 free
 C32 = 0
 C33 free
 C34 free
 C35 free
 C36 free
 C37 free
 C38 free
 C39 free
 C40 free
 C41 free
 C42 free
 C43 free
 C44 free
 C45 free
 C46 free
 C47 free
 C48 = 0
 C49 free
 C50 free
 C51 free
 C52 free
 C53 free
 C54 free
 C55 free
 C56 free
 C57 free
 C58 free
 C59 free
 C60 free
 C61 free
 C62 free
 C63 free
 C64 free
 C65 free
 C66 free
 C67 free
 C68 free
 C69 free
 C70 free
 C71 free
 C72 free
 C73 free
 C74 free
 C75 free
 C76 free
 C77 free
 C78 free
 C79 free
 C80 free
 C81 free
 C82 free
 C83 free
 C84 free
 C85 free
 C86 free
 C87 free
 C88 free
 C89 free
 C90 free
 C91 free
 C92 free
 C93 free
 C94 free
 C95 free
 C96 free
 C97 free
 C98 free
 C99 free
 C100 free
 C101 free
 C102 free
 C103 free
 C104 free
 C105 free
 C106 free
 C107 free
 C108 free
 C109 free
 C110 free
 C111 free
 C112 free
 C113 free
 C114 free
 C115 free
 C116 free
 C117 free
 C118 free
 C119 free
 C120 free
 C121 free
 C122 free
 C123 free
 C124 free
 C125 free
 C126 free
 C127 free
 C128 free
 C129 free
 C130 free
 C131 free
 C132 free
 C133 free
 C134 free
 C135 free
 C136 free
 C137 free
 C138 free
 C139 free
 C140 free
 C141 free
 C142 free
 C143 free
 C144 free
 C145 free
 C146 free
 C147 free
 C148 free
 C149 free
 C150 free
 C151 free
 C152 free
 C153 free
 C154 free
 C155 free
 C156 free
 C157 free
 C158 free
 C159 free
 C160 free
 C161 free
 C162 free
 C163 free
End
